--- Job Safely.Brett-CEE6410-HW#6Dual.gms Start 10/14/24 16:05:33 47.6.0 c2de9d6d WEX-WEI x86 64bit/MS Windows
--- Applying:
    C:\GAMS\47\gmsprmNT.txt
--- GAMS Parameters defined
    Input "C:\Users\bsafe\OneDrive\Documents\CEE 6410 - Water Resources Systems Analysis\HW#6\Safely.Brett-CEE6410-HW#6Dual.gms"
    PageSize 0
    ScrDir "C:\Users\bsafe\OneDrive\Documents\CEE 6410 - Water Resources Systems Analysis\HW#6\225a\"
    SysDir C:\GAMS\47\
    LogOption 3
    ErrMsg 1
    ErrorLog 99
    IDE 1
    LstTitleLeftAligned 1
Licensee: CEE 6410 Water Resources Systems Analysis      G240923|0002AO-GEN
          Utah State University, Utah Water Research Laboratory     DCE3763
          C:\Users\bsafe\OneDrive\Documents\GAMS\gamslice.txt
          License Admin: David Rosenberg, david.rosenberg@usu.edu          
          Other time limited license
          The evaluation period of the license will expire on Dec 22, 2024
Processor information: 1 socket(s), 4 core(s), and 8 thread(s) available
GAMS 47.6.0   Copyright (C) 1987-2024 GAMS Development. All rights reserved
--- Starting compilation
--- Safely.Brett-CEE6410-HW#6Dual.gms(68) 3 Mb
--- Starting execution: elapsed 0:00:00.039
--- Generating LP model DUAL_PLANTING
--- Safely.Brett-CEE6410-HW#6Dual.gms(66) 4 Mb
---   3 rows  5 columns  12 non-zeroes
--- Range statistics (absolute non-zero finite values)
--- RHS       [min, max] : [ 1.000E+02, 1.200E+02] - Zero values observed as well
--- Bound     [min, max] : [        NA,        NA] - Zero values observed as well
--- Matrix    [min, max] : [ 1.000E+00, 1.800E+04]
--- Executing CPLEX (Solvelink=2): elapsed 0:00:00.107

IBM ILOG CPLEX   47.6.0 c2de9d6d Sep 12, 2024          WEI x86 64bit/MS Window

*** This solver runs with a community license.
--- GMO setup time: 0.00s
--- GMO memory 0.50 Mb (peak 0.50 Mb)
--- Dictionary memory 0.00 Mb
--- Cplex 22.1.1.0 link memory 0.00 Mb (peak 0.00 Mb)
--- Starting Cplex

Version identifier: 22.1.1.0 | 2022-11-27 | 9160aff4d
CPXPARAM_Advance                                 0
CPXPARAM_Simplex_Display                         2
CPXPARAM_MIP_Display                             4
CPXPARAM_MIP_Pool_Capacity                       0
CPXPARAM_MIP_Tolerances_AbsMIPGap                0
Tried aggregator 1 time.
LP Presolve eliminated 0 rows and 1 columns.
Reduced LP has 2 rows, 4 columns, and 7 nonzeros.
Presolve time = 0.00 sec. (0.00 ticks)

Iteration      Dual Objective            In Variable           Out Variable
     1         1080000.000000           Y(JulyWater)PROFIT_CONSTRAIN( slack
     2         1160000.000000                Y(Land)PROFIT_CONSTRAIN( slack

--- LP status (1): optimal.
--- Cplex Time: 0.00sec (det. 0.00 ticks)


Optimal solution found
Objective:      1160000.000000

--- Reading solution for model DUAL_PLANTING
*** Status: Normal completion
--- Job Safely.Brett-CEE6410-HW#6Dual.gms Stop 10/14/24 16:05:34 elapsed 0:00:00.272
